GLPSOL--GLPK LP/MIP Solver 5.0
Parameter(s) specified in the command line:
 --lp ../modeles/3_374.lp --log 3_374.log
Reading problem data from '../modeles/3_374.lp'...
1135 rows, 2250 columns, 7863 non-zeros
1122 integer variables, all of which are binary
3394 lines were read
GLPK Integer Optimizer 5.0
1135 rows, 2250 columns, 7863 non-zeros
1122 integer variables, all of which are binary
Preprocessing...
1110 constraint coefficient(s) were reduced
1135 rows, 2247 columns, 7860 non-zeros
1122 integer variables, all of which are binary
Scaling...
 A: min|aij| =  1.144e-04  max|aij| =  4.000e+00  ratio =  3.497e+04
GM: min|aij| =  7.313e-02  max|aij| =  1.367e+01  ratio =  1.870e+02
EQ: min|aij| =  5.348e-03  max|aij| =  1.000e+00  ratio =  1.870e+02
2N: min|aij| =  3.660e-03  max|aij| =  1.759e+00  ratio =  4.805e+02
Constructing initial basis...
Size of triangular part is 1135
Solving LP relaxation...
GLPK Simplex Optimizer 5.0
1135 rows, 2247 columns, 7860 non-zeros
      0: obj =   6.000000000e+00 inf =   1.450e+01 (7)
     68: obj =   4.554859651e-01 inf =   0.000e+00 (0)
*   225: obj =  -1.732045579e+00 inf =   8.799e-16 (0)
OPTIMAL LP SOLUTION FOUND
Integer optimization begins...
Long-step dual simplex will be used
+   225: mip =     not found yet >=              -inf        (1; 0)
+   415: >>>>>  -1.732045579e+00 >=  -1.732045579e+00 < 0.1% (191; 0)
+   415: mip =  -1.732045579e+00 >=     tree is empty   0.0% (0; 381)
INTEGER OPTIMAL SOLUTION FOUND
Time used:   0.3 secs
Memory used: 3.3 Mb (3476917 bytes)
